unknown
(model
; cardinality of BoundSet is 1
(declare-sort BoundSet 0)
(declare-fun groundTerm_1 () BoundSet)
; cardinality of UnboundSet is 1
(declare-sort UnboundSet 0)
(declare-fun groundTerm_2 () UnboundSet)
(define-fun IsFourToEightTimes ((BOUND_VARIABLE_341 BoundSet)) Bool false)
(define-fun IsVenting ((BOUND_VARIABLE_341 BoundSet)) Bool false)
)
sat
(model
; cardinality of BoundSet is 1
(declare-sort BoundSet 0)
; rep: @uc_BoundSet_0
; cardinality of UnboundSet is 1
(declare-sort UnboundSet 0)
(declare-fun groundTerm_4 () UnboundSet)
(define-fun IsFourToEightTimes ((BOUND_VARIABLE_357 BoundSet)) Bool false)
(define-fun IsVenting ((BOUND_VARIABLE_357 BoundSet)) Bool false)
)
